
  32    4
  10   10   10   10

   0   0   0   0   0  10 2 3 4 5 6 8 12 13 30 31 
   9   1   1   0   1  10 28 25 24 23 22 21 19 17 16 10 
   9   6   2   0   4   8 29 26 21 20 18 16 15 7 
   2   6   3   1   0   7 27 26 22 19 18 14 11 
  10   4   2   3   0   5 25 24 22 17 15 
   2   6   7   0   7   4 21 20 19 9 
   5   0   2   3   4   3 23 17 14 
   6   5   8   0   4   3 20 18 14 
   3   7   5   8   0   1 14 
   1   0   4   5   4   1 14 
   9   1   2   0   4   1 16 
   6   0   3   6   7   1 15 
   5   4   2   3   0   1 15 
   4   1   5   0   6   1 32
   4   6   0   5   3   1 32
   7   3   2   4   0   1 32
  10   3   3   7   0   1 32
   6   3   5   0   6   1 32
   6   5   0   3   3   1 32
   1   0   4   2   6   1 32
   1   4   4   0   6   1 32
   8   6   0   2   3   1 32
   2   2   4   0   3   1 32
   6   0   4   4   8   1 32
  10   3   5   0   1   1 32
   6   3   4   0   2   1 32
   8   0   5   1   3   1 32
   7   0   3   5   1   1 32
   1   5   7   0   2   1 32
   4   4   7   5   0   1 32
   8   4   5   5   0   1 32
   0   0   0   0   0   0 
